150
0 129 27 92 130 108 46 112 71 9 83 17 136 78 105 89 48 5 62 74 96 138 55 142 118 3 65 64 117 123 25 128 69 18 52 133 87 15 21 93 23 37 103 110 101 98 35 126 58 140 73 20 16 14 10 31 44 90 97 22 59 61 149 34 85 26 11 148 54 82 33 134 139 67 84 106 111 131 28 45 2 42 122 114 119 127 135 40 70 99 13 47 29 120 100 38 146 95 77 51 4 36 102 145 32 75 12 94 125 81 115 1 53 39 63 143 113 43 49 72 68 80 24 60 50 124 86 144 8 116 6 56 19 76 109 57 107 66 104 141 147 132 137 88 30 79 121 41 7 91 
